NAME: cuum1010.tsp
TYPE: TSP
COMMENT: User-generated TSP file
DIMENSION: 1010
EDGE_WEIGHT_TYPE: EUC_2D
NODE_COORD_SECTION
1 39.0 138.0
2 367.0 635.0
3 312.0 207.0
4 636.0 451.0
5 867.0 836.0
6 878.0 705.0
7 291.0 652.0
8 314.0 805.0
9 1005.0 300.0
10 190.0 364.0
11 507.0 413.0
12 291.0 513.0
13 605.0 930.0
14 930.0 56.0
15 211.0 935.0
16 548.0 77.0
17 448.0 885.0
18 1003.0 915.0
19 738.0 1002.0
20 530.0 558.0
21 97.0 96.0
22 755.0 205.0
23 346.0 166.0
24 708.0 560.0
25 101.0 964.0
26 161.0 777.0
27 169.0 180.0
28 640.0 324.0
29 436.0 213.0
30 341.0 824.0
31 154.0 861.0
32 708.0 920.0
33 172.0 887.0
34 246.0 123.0
35 445.0 198.0
36 130.0 952.0
37 838.0 779.0
38 738.0 959.0
39 208.0 874.0
40 497.0 190.0
41 573.0 871.0
42 443.0 752.0
43 375.0 538.0
44 796.0 927.0
45 229.0 341.0
46 913.0 539.0
47 962.0 670.0
48 158.0 209.0
49 314.0 330.0
50 215.0 747.0
51 24.0 477.0
52 352.0 962.0
53 431.0 248.0
54 795.0 331.0
55 915.0 175.0
56 858.0 412.0
57 611.0 466.0
58 773.0 365.0
59 860.0 477.0
60 164.0 838.0
61 142.0 402.0
62 808.0 267.0
63 357.0 745.0
64 981.0 875.0
65 874.0 356.0
66 907.0 157.0
67 431.0 112.0
68 540.0 392.0
69 1007.0 234.0
70 286.0 840.0
71 378.0 571.0
72 799.0 863.0
73 181.0 210.0
74 971.0 89.0
75 365.0 212.0
76 18.0 20.0
77 709.0 16.0
78 345.0 154.0
79 130.0 502.0
80 692.0 422.0
81 213.0 861.0
82 30.0 716.0
83 28.0 862.0
84 642.0 271.0
85 485.0 363.0
86 897.0 823.0
87 970.0 614.0
88 421.0 818.0
89 774.0 534.0
90 528.0 487.0
91 550.0 417.0
92 602.0 499.0
93 687.0 628.0
94 467.0 139.0
95 436.0 360.0
96 114.0 672.0
97 728.0 110.0
98 691.0 690.0
99 813.0 766.0
100 948.0 832.0
101 106.0 469.0
102 377.0 698.0
103 164.0 620.0
104 618.0 20.0
105 766.0 110.0
106 309.0 600.0
107 591.0 833.0
108 941.0 355.0
109 757.0 897.0
110 290.0 373.0
111 768.0 951.0
112 497.0 120.0
113 77.0 392.0
114 111.0 259.0
115 827.0 324.0
116 337.0 252.0
117 51.0 933.0
118 584.0 139.0
119 594.0 145.0
120 19.0 420.0
121 89.0 827.0
122 474.0 580.0
123 399.0 988.0
124 345.0 390.0
125 692.0 14.0
126 937.0 818.0
127 606.0 815.0
128 967.0 203.0
129 868.0 447.0
130 777.0 971.0
131 597.0 761.0
132 792.0 188.0
133 873.0 165.0
134 292.0 431.0
135 172.0 481.0
136 69.0 870.0
137 540.0 366.0
138 994.0 40.0
139 724.0 416.0
140 129.0 817.0
141 170.0 222.0
142 850.0 868.0
143 351.0 369.0
144 651.0 953.0
145 1002.0 941.0
146 1000.0 430.0
147 38.0 993.0
148 60.0 853.0
149 39.0 119.0
150 309.0 309.0
151 868.0 701.0
152 320.0 99.0
153 2.0 696.0
154 975.0 602.0
155 329.0 207.0
156 864.0 502.0
157 744.0 7.0
158 510.0 903.0
159 362.0 166.0
160 707.0 124.0
161 661.0 381.0
162 613.0 429.0
163 231.0 732.0
164 359.0 682.0
165 704.0 909.0
166 499.0 721.0
167 420.0 573.0
168 120.0 920.0
169 454.0 863.0
170 753.0 939.0
171 634.0 914.0
172 970.0 458.0
173 228.0 24.0
174 775.0 442.0
175 157.0 276.0
176 720.0 216.0
177 943.0 618.0
178 985.0 799.0
179 321.0 97.0
180 289.0 875.0
181 736.0 291.0
182 959.0 489.0
183 343.0 883.0
184 107.0 215.0
185 6.0 31.0
186 52.0 767.0
187 527.0 105.0
188 577.0 314.0
189 863.0 542.0
190 851.0 727.0
191 114.0 657.0
192 852.0 890.0
193 129.0 642.0
194 939.0 878.0
195 78.0 666.0
196 48.0 625.0
197 178.0 4.0
198 278.0 218.0
199 698.0 427.0
200 174.0 941.0
201 624.0 182.0
202 352.0 254.0
203 197.0 229.0
204 474.0 801.0
205 268.0 725.0
206 439.0 991.0
207 394.0 773.0
208 912.0 176.0
209 488.0 741.0
210 981.0 41.0
211 423.0 204.0
212 96.0 714.0
213 793.0 690.0
214 268.0 258.0
215 471.0 935.0
216 548.0 904.0
217 22.0 740.0
218 541.0 694.0
219 978.0 304.0
220 707.0 829.0
221 827.0 406.0
222 651.0 340.0
223 1005.0 873.0
224 40.0 311.0
225 8.0 330.0
226 433.0 51.0
227 291.0 619.0
228 467.0 380.0
229 430.0 384.0
230 389.0 176.0
231 232.0 226.0
232 331.0 421.0
233 951.0 321.0
234 967.0 255.0
235 839.0 277.0
236 266.0 441.0
237 25.0 121.0
238 602.0 541.0
239 516.0 500.0
240 500.0 531.0
241 667.0 607.0
242 187.0 626.0
243 393.0 493.0
244 70.0 464.0
245 488.0 596.0
246 142.0 99.0
247 446.0 106.0
248 564.0 607.0
249 115.0 928.0
250 16.0 73.0
251 576.0 264.0
252 226.0 283.0
253 49.0 304.0
254 885.0 48.0
255 474.0 35.0
256 575.0 787.0
257 651.0 591.0
258 288.0 20.0
259 80.0 982.0
260 507.0 560.0
261 728.0 176.0
262 389.0 415.0
263 994.0 533.0
264 761.0 647.0
265 98.0 729.0
266 758.0 894.0
267 52.0 561.0
268 213.0 934.0
269 720.0 554.0
270 550.0 38.0
271 119.0 820.0
272 943.0 896.0
273 392.0 960.0
274 668.0 810.0
275 807.0 329.0
276 225.0 87.0
277 93.0 706.0
278 654.0 388.0
279 513.0 1007.0
280 720.0 245.0
281 781.0 228.0
282 979.0 502.0
283 406.0 337.0
284 686.0 486.0
285 586.0 1003.0
286 652.0 438.0
287 434.0 457.0
288 967.0 560.0
289 208.0 832.0
290 551.0 85.0
291 719.0 754.0
292 775.0 779.0
293 478.0 223.0
294 1007.0 113.0
295 446.0 855.0
296 292.0 93.0
297 480.0 209.0
298 863.0 110.0
299 762.0 22.0
300 180.0 335.0
301 403.0 452.0
302 403.0 987.0
303 786.0 577.0
304 39.0 240.0
305 398.0 558.0
306 51.0 935.0
307 344.0 645.0
308 413.0 95.0
309 527.0 10.0
310 27.0 41.0
311 881.0 406.0
312 101.0 873.0
313 732.0 987.0
314 198.0 133.0
315 116.0 474.0
316 936.0 267.0
317 582.0 170.0
318 381.0 41.0
319 568.0 997.0
320 25.0 610.0
321 628.0 3.0
322 838.0 306.0
323 378.0 429.0
324 455.0 367.0
325 426.0 905.0
326 140.0 900.0
327 417.0 651.0
328 449.0 760.0
329 98.0 271.0
330 758.0 433.0
331 403.0 642.0
332 314.0 903.0
333 634.0 687.0
334 501.0 662.0
335 304.0 950.0
336 914.0 416.0
337 109.0 96.0
338 503.0 182.0
339 147.0 23.0
340 82.0 788.0
341 421.0 527.0
342 222.0 703.0
343 419.0 730.0
344 232.0 743.0
345 794.0 739.0
346 748.0 451.0
347 185.0 789.0
348 762.0 187.0
349 769.0 257.0
350 796.0 732.0
351 833.0 609.0
352 459.0 914.0
353 901.0 189.0
354 589.0 282.0
355 695.0 999.0
356 100.0 956.0
357 270.0 572.0
358 33.0 654.0
359 567.0 133.0
360 823.0 536.0
361 260.0 535.0
362 93.0 44.0
363 782.0 937.0
364 150.0 620.0
365 756.0 233.0
366 718.0 243.0
367 541.0 706.0
368 529.0 926.0
369 348.0 984.0
370 341.0 802.0
371 537.0 607.0
372 218.0 164.0
373 426.0 832.0
374 125.0 100.0
375 42.0 39.0
376 828.0 484.0
377 855.0 576.0
378 149.0 76.0
379 165.0 638.0
380 720.0 381.0
381 2.0 481.0
382 409.0 21.0
383 249.0 85.0
384 197.0 534.0
385 738.0 267.0
386 101.0 97.0
387 927.0 410.0
388 358.0 694.0
389 950.0 546.0
390 932.0 923.0
391 157.0 580.0
392 954.0 186.0
393 285.0 108.0
394 342.0 769.0
395 34.0 917.0
396 665.0 742.0
397 766.0 842.0
398 447.0 444.0
399 390.0 504.0
400 65.0 743.0
401 159.0 593.0
402 301.0 584.0
403 513.0 975.0
404 823.0 964.0
405 140.0 1010.0
406 674.0 147.0
407 712.0 815.0
408 888.0 218.0
409 472.0 277.0
410 791.0 427.0
411 86.0 942.0
412 122.0 360.0
413 3.0 416.0
414 61.0 201.0
415 870.0 907.0
416 683.0 627.0
417 998.0 855.0
418 159.0 183.0
419 420.0 913.0
420 659.0 756.0
421 177.0 542.0
422 633.0 639.0
423 514.0 637.0
424 572.0 792.0
425 807.0 309.0
426 798.0 555.0
427 326.0 247.0
428 118.0 59.0
429 190.0 526.0
430 901.0 291.0
431 40.0 527.0
432 425.0 371.0
433 966.0 28.0
434 876.0 277.0
435 829.0 762.0
436 653.0 895.0
437 795.0 923.0
438 676.0 812.0
439 698.0 373.0
440 449.0 610.0
441 988.0 402.0
442 76.0 722.0
443 461.0 825.0
444 961.0 538.0
445 341.0 384.0
446 633.0 919.0
447 866.0 29.0
448 379.0 1006.0
449 741.0 367.0
450 48.0 779.0
451 334.0 314.0
452 278.0 633.0
453 479.0 296.0
454 141.0 526.0
455 681.0 925.0
456 402.0 193.0
457 705.0 744.0
458 82.0 658.0
459 74.0 157.0
460 65.0 494.0
461 965.0 386.0
462 924.0 533.0
463 625.0 460.0
464 395.0 560.0
465 155.0 500.0
466 754.0 89.0
467 335.0 522.0
468 122.0 327.0
469 377.0 56.0
470 89.0 34.0
471 378.0 187.0
472 871.0 54.0
473 792.0 251.0
474 610.0 567.0
475 153.0 952.0
476 713.0 554.0
477 108.0 881.0
478 919.0 282.0
479 748.0 441.0
480 205.0 974.0
481 343.0 421.0
482 199.0 767.0
483 122.0 354.0
484 195.0 695.0
485 268.0 882.0
486 375.0 647.0
487 790.0 672.0
488 631.0 678.0
489 674.0 45.0
490 7.0 135.0
491 809.0 479.0
492 103.0 71.0
493 579.0 248.0
494 381.0 843.0
495 836.0 419.0
496 32.0 468.0
497 810.0 756.0
498 315.0 42.0
499 824.0 982.0
500 708.0 511.0
501 450.0 323.0
502 171.0 390.0
503 466.0 581.0
504 647.0 810.0
505 679.0 803.0
506 189.0 718.0
507 642.0 430.0
508 813.0 964.0
509 697.0 769.0
510 351.0 995.0
511 980.0 448.0
512 226.0 483.0
513 544.0 938.0
514 568.0 748.0
515 968.0 220.0
516 88.0 788.0
517 905.0 703.0
518 528.0 310.0
519 538.0 46.0
520 402.0 305.0
521 207.0 204.0
522 681.0 711.0
523 779.0 227.0
524 122.0 805.0
525 499.0 310.0
526 521.0 242.0
527 846.0 398.0
528 159.0 875.0
529 487.0 563.0
530 112.0 864.0
531 971.0 998.0
532 106.0 515.0
533 316.0 438.0
534 877.0 140.0
535 325.0 761.0
536 778.0 435.0
537 645.0 805.0
538 309.0 479.0
539 727.0 912.0
540 33.0 231.0
541 825.0 757.0
542 374.0 353.0
543 576.0 480.0
544 821.0 581.0
545 649.0 352.0
546 490.0 687.0
547 180.0 680.0
548 677.0 869.0
549 115.0 938.0
550 980.0 281.0
551 223.0 732.0
552 684.0 612.0
553 183.0 636.0
554 143.0 135.0
555 789.0 1.0
556 925.0 218.0
557 261.0 231.0
558 417.0 240.0
559 263.0 529.0
560 687.0 27.0
561 773.0 189.0
562 106.0 275.0
563 259.0 363.0
564 612.0 776.0
565 248.0 119.0
566 502.0 798.0
567 755.0 594.0
568 938.0 637.0
569 809.0 440.0
570 82.0 129.0
571 877.0 624.0
572 961.0 629.0
573 233.0 877.0
574 322.0 631.0
575 914.0 145.0
576 245.0 576.0
577 562.0 394.0
578 556.0 944.0
579 733.0 518.0
580 973.0 700.0
581 427.0 204.0
582 668.0 633.0
583 429.0 820.0
584 414.0 581.0
585 515.0 108.0
586 40.0 276.0
587 68.0 496.0
588 381.0 288.0
589 672.0 365.0
590 983.0 695.0
591 876.0 39.0
592 937.0 901.0
593 560.0 131.0
594 419.0 295.0
595 276.0 841.0
596 456.0 956.0
597 511.0 801.0
598 501.0 516.0
599 880.0 61.0
600 305.0 193.0
601 736.0 728.0
602 197.0 764.0
603 782.0 398.0
604 701.0 49.0
605 62.0 323.0
606 38.0 249.0
607 398.0 218.0
608 785.0 944.0
609 285.0 39.0
610 808.0 908.0
611 873.0 548.0
612 882.0 926.0
613 91.0 15.0
614 59.0 848.0
615 654.0 741.0
616 346.0 314.0
617 23.0 986.0
618 9.0 366.0
619 454.0 607.0
620 310.0 184.0
621 758.0 800.0
622 77.0 109.0
623 2.0 664.0
624 137.0 819.0
625 728.0 820.0
626 707.0 584.0
627 182.0 646.0
628 81.0 247.0
629 571.0 16.0
630 861.0 853.0
631 656.0 268.0
632 159.0 900.0
633 124.0 348.0
634 546.0 864.0
635 44.0 673.0
636 636.0 476.0
637 948.0 131.0
638 193.0 340.0
639 905.0 883.0
640 734.0 989.0
641 387.0 591.0
642 175.0 668.0
643 455.0 848.0
644 522.0 456.0
645 817.0 933.0
646 450.0 471.0
647 961.0 643.0
648 624.0 914.0
649 103.0 196.0
650 666.0 881.0
651 874.0 777.0
652 25.0 319.0
653 220.0 743.0
654 854.0 919.0
655 135.0 798.0
656 680.0 592.0
657 102.0 33.0
658 292.0 785.0
659 648.0 657.0
660 254.0 1006.0
661 166.0 6.0
662 225.0 932.0
663 969.0 363.0
664 318.0 739.0
665 143.0 921.0
666 89.0 628.0
667 233.0 739.0
668 772.0 686.0
669 722.0 339.0
670 997.0 642.0
671 555.0 352.0
672 980.0 607.0
673 354.0 6.0
674 874.0 373.0
675 527.0 875.0
676 127.0 785.0
677 626.0 529.0
678 714.0 851.0
679 930.0 564.0
680 224.0 604.0
681 845.0 297.0
682 801.0 757.0
683 340.0 322.0
684 801.0 277.0
685 230.0 373.0
686 616.0 875.0
687 718.0 313.0
688 1008.0 387.0
689 115.0 4.0
690 666.0 568.0
691 141.0 853.0
692 92.0 615.0
693 324.0 333.0
694 207.0 961.0
695 32.0 197.0
696 894.0 1005.0
697 191.0 478.0
698 322.0 235.0
699 972.0 582.0
700 814.0 541.0
701 753.0 990.0
702 485.0 445.0
703 115.0 480.0
704 411.0 457.0
705 585.0 475.0
706 873.0 979.0
707 170.0 614.0
708 184.0 951.0
709 408.0 486.0
710 685.0 159.0
711 270.0 199.0
712 100.0 647.0
713 778.0 275.0
714 298.0 128.0
715 897.0 464.0
716 805.0 487.0
717 432.0 588.0
718 84.0 171.0
719 829.0 184.0
720 17.0 398.0
721 766.0 554.0
722 812.0 219.0
723 566.0 920.0
724 444.0 493.0
725 370.0 663.0
726 469.0 634.0
727 870.0 44.0
728 179.0 1007.0
729 590.0 529.0
730 491.0 657.0
731 102.0 365.0
732 26.0 182.0
733 623.0 496.0
734 884.0 562.0
735 122.0 997.0
736 301.0 306.0
737 383.0 486.0
738 532.0 415.0
739 141.0 706.0
740 994.0 178.0
741 752.0 219.0
742 43.0 961.0
743 775.0 778.0
744 968.0 729.0
745 653.0 782.0
746 652.0 230.0
747 861.0 532.0
748 351.0 14.0
749 571.0 724.0
750 842.0 809.0
751 708.0 176.0
752 715.0 49.0
753 24.0 141.0
754 960.0 405.0
755 458.0 954.0
756 755.0 172.0
757 7.0 154.0
758 697.0 127.0
759 69.0 173.0
760 963.0 781.0
761 890.0 842.0
762 3.0 854.0
763 264.0 546.0
764 924.0 815.0
765 806.0 468.0
766 113.0 60.0
767 780.0 925.0
768 298.0 51.0
769 173.0 962.0
770 898.0 353.0
771 239.0 224.0
772 653.0 776.0
773 863.0 512.0
774 892.0 646.0
775 171.0 564.0
776 355.0 410.0
777 21.0 539.0
778 944.0 236.0
779 1.0 410.0
780 144.0 878.0
781 228.0 413.0
782 240.0 70.0
783 431.0 777.0
784 816.0 788.0
785 716.0 207.0
786 727.0 681.0
787 979.0 774.0
788 430.0 361.0
789 381.0 220.0
790 672.0 751.0
791 294.0 805.0
792 473.0 366.0
793 897.0 1001.0
794 275.0 201.0
795 496.0 54.0
796 147.0 650.0
797 726.0 25.0
798 707.0 689.0
799 148.0 185.0
800 866.0 805.0
801 200.0 832.0
802 440.0 605.0
803 137.0 304.0
804 945.0 551.0
805 234.0 770.0
806 212.0 749.0
807 275.0 283.0
808 160.0 513.0
809 452.0 407.0
810 184.0 450.0
811 12.0 424.0
812 134.0 434.0
813 427.0 5.0
814 727.0 911.0
815 602.0 770.0
816 680.0 762.0
817 9.0 336.0
818 65.0 710.0
819 569.0 989.0
820 687.0 704.0
821 210.0 381.0
822 98.0 553.0
823 313.0 67.0
824 981.0 614.0
825 501.0 23.0
826 291.0 500.0
827 543.0 244.0
828 67.0 306.0
829 822.0 83.0
830 753.0 870.0
831 636.0 993.0
832 584.0 570.0
833 171.0 953.0
834 485.0 28.0
835 211.0 77.0
836 358.0 987.0
837 934.0 1008.0
838 810.0 864.0
839 177.0 305.0
840 722.0 468.0
841 722.0 333.0
842 428.0 794.0
843 393.0 399.0
844 952.0 750.0
845 251.0 833.0
846 700.0 729.0
847 245.0 609.0
848 391.0 365.0
849 868.0 997.0
850 754.0 780.0
851 114.0 105.0
852 998.0 7.0
853 664.0 715.0
854 293.0 559.0
855 207.0 292.0
856 53.0 54.0
857 516.0 524.0
858 736.0 296.0
859 121.0 789.0
860 54.0 446.0
861 589.0 806.0
862 623.0 164.0
863 375.0 3.0
864 834.0 567.0
865 27.0 643.0
866 844.0 417.0
867 438.0 362.0
868 493.0 10.0
869 770.0 458.0
870 532.0 655.0
871 108.0 21.0
872 469.0 758.0
873 730.0 539.0
874 754.0 74.0
875 374.0 828.0
876 265.0 532.0
877 700.0 455.0
878 756.0 942.0
879 99.0 237.0
880 70.0 38.0
881 708.0 851.0
882 642.0 774.0
883 425.0 777.0
884 810.0 725.0
885 1001.0 340.0
886 24.0 309.0
887 218.0 172.0
888 810.0 529.0
889 80.0 320.0
890 748.0 329.0
891 112.0 190.0
892 498.0 578.0
893 290.0 853.0
894 39.0 310.0
895 64.0 906.0
896 918.0 933.0
897 269.0 38.0
898 444.0 638.0
899 532.0 538.0
900 175.0 317.0
901 867.0 690.0
902 122.0 36.0
903 71.0 513.0
904 322.0 1006.0
905 902.0 334.0
906 695.0 638.0
907 798.0 380.0
908 719.0 345.0
909 474.0 839.0
910 508.0 771.0
911 897.0 468.0
912 222.0 375.0
913 448.0 317.0
914 224.0 945.0
915 471.0 868.0
916 318.0 738.0
917 800.0 289.0
918 56.0 968.0
919 94.0 105.0
920 619.0 308.0
921 837.0 264.0
922 568.0 194.0
923 948.0 232.0
924 447.0 919.0
925 204.0 210.0
926 975.0 264.0
927 922.0 367.0
928 897.0 566.0
929 318.0 832.0
930 770.0 896.0
931 703.0 307.0
932 62.0 809.0
933 966.0 484.0
934 976.0 682.0
935 977.0 538.0
936 240.0 374.0
937 820.0 304.0
938 241.0 94.0
939 454.0 473.0
940 186.0 846.0
941 213.0 68.0
942 972.0 138.0
943 898.0 694.0
944 507.0 144.0
945 763.0 319.0
946 94.0 356.0
947 569.0 536.0
948 657.0 837.0
949 396.0 248.0
950 292.0 78.0
951 5.0 260.0
952 762.0 696.0
953 663.0 109.0
954 122.0 146.0
955 433.0 84.0
956 80.0 664.0
957 658.0 302.0
958 214.0 917.0
959 937.0 426.0
960 709.0 709.0
961 385.0 72.0
962 314.0 628.0
963 912.0 664.0
964 611.0 308.0
965 466.0 5.0
966 301.0 798.0
967 47.0 420.0
968 582.0 475.0
969 956.0 335.0
970 118.0 366.0
971 467.0 348.0
972 538.0 152.0
973 782.0 27.0
974 657.0 686.0
975 508.0 623.0
976 338.0 619.0
977 115.0 49.0
978 836.0 981.0
979 224.0 589.0
980 928.0 897.0
981 960.0 641.0
982 314.0 173.0
983 952.0 685.0
984 652.0 47.0
985 175.0 700.0
986 938.0 522.0
987 820.0 381.0
988 622.0 201.0
989 512.0 123.0
990 300.0 421.0
991 913.0 481.0
992 966.0 873.0
993 816.0 837.0
994 2.0 427.0
995 812.0 956.0
996 709.0 29.0
997 50.0 685.0
998 873.0 318.0
999 195.0 139.0
1000 132.0 896.0
1001 1004.0 342.0
1002 262.0 500.0
1003 470.0 291.0
1004 139.0 185.0
1005 978.0 668.0
1006 245.0 678.0
1007 151.0 331.0
1008 516.0 917.0
1009 170.0 916.0
1010 530.0 629.0
EOF





